Route #1: 9 1 10 2 3 4 17 23 27 32 46 41 45 55 65 71 78 83 91 84 96 85 72 66 56 52 42 33 34 43 47 57 67 68 58 59 60 48 35 28 19 18 5 11 12 20 29 30 36 44 37 24 13 6 14 15 7 8 16 26 25 22 21 31 38 39 40 51 64 77 76 75 70 63 54 50 49 53 62 61 69 81 73 80 79 92 97 93 98 86 99 100 87 74 82 88 89 90 94 95
Cost 45433
